Route #1: 23 10 11 
Route #2: 34 37 4 38 9 13 
Route #3: 17 15 35 39 24 26 14 36 2 
Route #4: 18 19 42 8 22 30 41 29 
Route #5: 7 6 21 32 16 
Route #6: 5 1 28 12 25 40 
Route #7: 27 31 43 33 3 20 
cost 1000.69
execution_time 17.651
